3 
4  58 
5  17 32 47 
6  02 16 30 42 56 
7  12 27 42 57 
8  12 27 42 57 
9  12 27 42 57 
10  12 27 42 57 
11  12 27 42 57 
12  12 27 42 56 
13  12 27 42 57 
14  12 27 42 57 
15  12 27 42 57 
16  12 27 42 57 
17  12 27 42 57 
18  12 27 42 57 
19  11 28 43 58 
20  13 28 42 57 
21  12 27 42 57 
22  12 27 42 
23 
